src/tpa/knapsack/rucsac.in
3

6 10
3 7
3 4
1 2
1 9
2 4
1 5

10 100
92 1
98 8
71 4
64 7
41 5
99 2
58 5
45 6
33 8
30 8

20 500
382 57
142 19
13 96
27 145
228 145
169 5
166 193
195 28
67 144
212 163
334 195
321 92
252 80
232 11
19 106
362 159
177 152
247 103
247 141
86 74